c Sudoku solution
p cnf 729 0
164 0
188 0
199 0
219 0
286 0
359 0
414 0
442 0
525 0
553 0
577 0
582 0
618 0
637 0
622 0
684 0
544 0
732 0
798 0
478 0
568 0
539 0
817 0
829 0
843 0
938 0
858 0
951 0
754 0
974 0
834 0
996 0
866 0
962 0
923 0
915 0
433 0
676 0
693 0
591 0
495 0
489 0
516 0
421 0
467 0
456 0
655 0
711 0
726 0
127 0
152 0
257 0
113 0
312 0
779 0
783 0
987 0
747 0
765 0
949 0
641 0
669 0
397 0
294 0
272 0
373 0
263 0
361 0
231 0
171 0
385 0
228 0
324 0
245 0
146 0
348 0
135 0
336 0
875 0
892 0
881 0
